[VALIDATOR STDOUT]
Checking plan: /home/fjl2401/Safety-gen/benchmark_problems/grid/optic_results/grid_x4_y4_sh2_k4_l4_s4002.plan
Plan executed successfully - checking goal
Goal not satisfied
Plan invalid


Failed plans:
 /home/fjl2401/Safety-gen/benchmark_problems/grid/optic_results/grid_x4_y4_sh2_k4_l4_s4002.plan
